NAME : mEgtspf
TYPE : ATSP
DIMENSION : 45
EDGE_WEIGHT_TYPE : EXPLICIT
EDGE_WEIGHT_FORMAT : FULL_MATRIX
EDGE_WEIGHT_SECTION
99999 2 0 0 0 0 0 0 43 0 36 0 0 18 14 0 0 0 35 27 26 24 0 0 0 0 58 0 41 33 31 0 32 37 45 48 0 0 19 15 0 27 0 0 0 
0 99999 0 0 0 0 0 0 45 0 40 0 0 22 18 0 0 0 37 29 30 28 0 0 0 0 60 0 43 35 33 0 36 41 49 50 0 0 23 19 0 31 0 0 0 
0 24 99999 0 0 0 0 0 27 0 48 0 0 40 34 0 0 0 31 31 28 26 0 0 0 0 44 0 27 21 21 0 42 47 45 38 0 0 37 29 0 41 0 0 0 
0 14 0 99999 0 0 0 0 35 0 44 0 0 30 24 0 0 0 35 29 30 28 0 0 0 0 52 0 35 27 25 0 38 43 49 46 0 0 29 21 0 35 0 0 0 
0 18 0 0 99999 0 0 0 31 0 48 0 0 34 28 0 0 0 31 31 28 26 0 0 0 0 48 0 31 23 21 0 42 47 45 42 0 0 33 25 0 39 0 0 0 
0 30 0 0 0 99999 0 0 21 0 46 0 0 44 38 0 0 0 25 29 26 24 0 0 0 0 38 0 21 13 13 0 38 45 39 32 0 0 35 27 0 39 0 0 0 
0 32 0 0 0 0 99999 0 37 0 22 0 0 18 18 0 0 0 29 21 26 26 0 0 0 0 52 0 37 37 39 0 26 31 37 42 0 0 15 21 0 13 0 0 0 
0 40 0 0 0 0 0 99999 5 0 26 0 0 44 38 0 0 0 5 15 14 18 0 0 0 0 22 0 17 15 17 0 18 25 17 12 0 0 29 29 0 21 0 0 0 
0 43 0 0 0 0 0 0 99999 0 31 0 0 49 43 0 0 0 10 20 19 23 0 0 0 0 19 0 12 12 14 0 23 28 20 13 0 0 34 32 0 26 0 0 0 
0 34 0 0 0 0 0 0 27 99999 8 0 0 28 22 0 0 0 21 19 22 24 0 0 0 0 38 0 35 33 35 0 10 15 21 28 0 0 15 23 0 11 0 0 0 
0 40 0 0 0 0 0 0 31 0 99999 0 0 38 32 0 0 0 25 21 26 26 0 0 0 0 40 0 37 37 39 0 14 13 23 30 0 0 23 27 0 13 0 0 0 
0 28 0 0 0 0 0 0 23 0 48 99999 0 44 38 0 0 0 27 31 28 26 0 0 0 0 40 0 23 15 15 0 40 47 41 34 0 0 37 29 0 41 0 0 0 
0 20 0 0 0 0 0 0 45 0 32 0 99999 6 8 0 0 0 37 29 28 26 0 0 0 0 60 0 45 37 35 0 34 39 45 50 0 0 15 17 0 21 0 0 0 
0 20 0 0 0 0 0 0 49 0 36 0 0 99999 8 0 0 0 41 31 30 28 0 0 0 0 64 0 47 39 37 0 36 41 49 54 0 0 19 19 0 25 0 0 0 
0 18 0 0 0 0 0 0 41 0 28 0 0 10 99999 0 0 0 33 25 24 22 0 0 0 0 56 0 41 33 31 0 30 35 41 46 0 0 11 13 0 17 0 0 0 
0 30 0 0 0 0 0 0 23 0 48 0 0 46 40 99999 0 0 27 31 28 30 0 0 0 0 40 0 23 17 17 0 40 47 41 34 0 0 41 33 0 41 0 0 0 
0 32 0 0 0 0 0 0 23 0 48 0 0 48 42 0 99999 0 27 31 28 30 0 0 0 0 40 0 23 17 17 0 40 47 41 34 0 0 41 33 0 41 0 0 0 
0 40 0 0 0 0 0 0 7 0 26 0 0 44 38 0 0 99999 5 15 14 18 0 0 0 0 22 0 15 15 17 0 18 25 17 12 0 0 29 29 0 21 0 0 0 
0 35 0 0 0 0 0 0 12 0 21 0 0 39 33 0 0 0 99999 10 9 13 0 0 0 0 27 0 16 16 18 0 13 20 14 17 0 0 24 24 0 16 0 0 0 
0 29 0 0 0 0 0 0 18 0 21 0 0 35 29 0 0 0 10 99999 5 9 0 0 0 0 33 0 16 16 18 0 13 20 20 23 0 0 18 16 0 14 0 0 0 
0 28 0 0 0 0 0 0 21 0 24 0 0 32 26 0 0 0 13 9 99999 4 0 0 0 0 36 0 19 17 17 0 18 23 23 26 0 0 15 15 0 15 0 0 0 
0 26 0 0 0 0 0 0 25 0 24 0 0 30 24 0 0 0 15 11 6 99999 0 0 0 0 40 0 23 21 19 0 18 23 27 30 0 0 15 13 0 15 0 0 0 
0 23 0 0 0 0 0 0 30 0 43 0 0 37 31 0 0 0 26 26 23 21 99999 0 0 0 47 0 30 18 16 0 37 42 40 39 0 0 32 24 0 36 0 0 0 
0 42 0 0 0 0 0 0 7 0 22 0 0 46 40 0 0 0 7 17 16 20 0 99999 0 0 22 0 19 17 19 0 14 21 13 12 0 0 31 31 0 23 0 0 0 
0 25 0 0 0 0 0 0 42 0 29 0 0 11 13 0 0 0 34 26 25 23 0 0 99999 0 57 0 42 36 34 0 31 36 42 47 0 0 12 16 0 18 0 0 0 
0 49 0 0 0 0 0 0 12 0 37 0 0 57 51 0 0 0 20 26 25 29 0 0 0 99999 11 0 12 20 22 0 29 34 26 17 0 0 40 38 0 36 0 0 0 
0 58 0 0 0 0 0 0 21 0 38 0 0 64 58 0 0 0 25 35 34 38 0 0 0 0 99999 0 23 31 33 0 32 29 19 14 0 0 49 47 0 41 0 0 0 
0 37 0 0 0 0 0 0 8 0 27 0 0 45 39 0 0 0 6 14 13 17 0 0 0 0 23 99999 10 10 12 0 19 26 18 13 0 0 28 26 0 22 0 0 0 
0 43 0 0 0 0 0 0 14 0 37 0 0 51 45 0 0 0 18 20 19 23 0 0 0 0 23 0 99999 10 12 0 31 36 30 23 0 0 34 32 0 30 0 0 0 
0 33 0 0 0 0 0 0 14 0 37 0 0 41 35 0 0 0 16 20 17 19 0 0 0 0 31 0 14 99999 4 0 29 36 30 23 0 0 30 22 0 30 0 0 0 
0 31 0 0 0 0 0 0 16 0 39 0 0 39 33 0 0 0 18 22 19 17 0 0 0 0 33 0 16 6 99999 0 31 38 32 25 0 0 28 20 0 32 0 0 0 
0 33 0 0 0 0 0 0 22 0 9 0 0 37 31 0 0 0 16 12 17 17 0 0 0 0 33 0 28 28 30 99999 3 8 16 23 0 0 20 20 0 14 0 0 0 
0 34 0 0 0 0 0 0 21 0 12 0 0 36 30 0 0 0 13 11 14 18 0 0 0 0 34 0 27 25 27 0 99999 11 17 24 0 0 21 21 0 13 0 0 0 
0 41 0 0 0 0 0 0 24 0 13 0 0 45 39 0 0 0 22 18 23 25 0 0 0 0 27 0 34 34 36 0 11 99999 10 19 0 0 28 28 0 22 0 0 0 
0 47 0 0 0 0 0 0 20 0 23 0 0 49 43 0 0 0 18 20 23 27 0 0 0 0 17 0 30 30 32 0 15 14 99999 11 0 0 34 34 0 26 0 0 0 
0 50 0 0 0 0 0 0 13 0 28 0 0 56 50 0 0 0 17 27 26 30 0 0 0 0 16 0 23 23 25 0 22 23 13 99999 0 0 41 39 0 33 0 0 0 
0 37 0 0 0 0 0 0 24 0 49 0 0 49 43 0 0 0 28 32 29 29 0 0 0 0 41 0 24 18 18 0 41 48 42 35 99999 0 40 32 0 42 0 0 0 
0 22 0 0 0 0 0 0 35 0 22 0 0 20 14 0 0 0 27 17 16 16 0 0 0 0 50 0 33 31 29 0 22 27 35 40 0 99999 1 11 0 11 0 0 0 
0 21 0 0 0 0 0 0 34 0 21 0 0 19 13 0 0 0 26 18 17 17 0 0 0 0 49 0 34 30 28 0 23 28 34 39 0 0 99999 10 0 10 0 0 0 
0 17 0 0 0 0 0 0 30 0 27 0 0 21 15 0 0 0 22 12 13 11 0 0 0 0 45 0 28 20 18 0 21 26 32 35 0 0 12 99999 0 18 0 0 0 
0 34 0 0 0 0 0 0 23 0 10 0 0 32 26 0 0 0 15 13 16 18 0 0 0 0 38 0 29 27 29 0 10 15 21 28 0 0 19 21 99999 9 0 0 0 
0 27 0 0 0 0 0 0 28 0 13 0 0 25 19 0 0 0 20 12 13 13 0 0 0 0 43 0 28 28 30 0 17 22 28 33 0 0 10 14 0 99999 0 0 0 
0 8 0 0 0 0 0 0 37 0 36 0 0 22 16 0 0 0 29 21 22 20 0 0 0 0 52 0 35 27 25 0 30 35 41 42 0 0 21 13 0 27 99999 0 0 
0 5 0 0 0 0 0 0 40 0 35 0 0 19 13 0 0 0 32 24 25 23 0 0 0 0 55 0 38 30 28 0 31 36 44 45 0 0 18 14 0 26 0 99999 0 
0 7 0 0 0 0 0 0 46 0 39 0 0 15 17 0 0 0 38 30 29 27 0 0 0 0 61 0 44 36 34 0 35 40 48 51 0 0 22 18 0 30 0 0 99999 
EOF
